problems/csplib-prob015/SchursLemma-models/noch/O2/lingeling/model_1_3-4-16-solution000001.solution
language Essence 1.3

letting boxes be partition({1, 7}, {2, 4, 5, 13, 14}, {3, 6, 11, 12, 16}, {8, 9, 10, 15})
